100
32
17
22
16
4
32
6
17
22
13
4
7
2
25
20
13
21
9
26
23
15
1
12
1
25
11
10
1
10
20
2
1
18
3
2
5
22
25
21
3
6
3
4
3
6
17
19
18
1
4
20
1
2
2
15
8
17
6
4
2
2
1
19
6
4
16
2
2
15
13
2
2
15
5
20
3
1
7
4
6
3
2
18
2
1
3
17
8
5
9
2
16
3
1
1
3
18
1
3
2
2